12,7	0,0	11,7	19,8	0,0	0,0	0,0	0,0	0,0	15,6
14,3	18,6	0,0	19,2	15,7	0,0	0,0	8,2	0,0	0,0
0,0	0,0	14,7	0,0	12,3	8,6	0,0	0,0	18,2	0,0
15,9	0,0	12,2	0,0	0,0	0,0	14,1	0,0	0,0	0,0
0,0	5,5	0,0	12,5	5,5	0,0	0,0	5,6	0,0	0,0
0,0	5,6	12,2	0,0	7,5	6,7	0,0	0,0	19,0	0,0
0,0	19,9	0,0	14,0	0,0	0,0	10,9	0,0	0,0	16,9
9,4	0,0	7,0	0,0	0,0	0,0	0,0	0,0	0,0	17,0
0,0	17,3	0,0	14,1	5,5	0,0	0,0	18,8	0,0	0,0
0,0	0,0	10,6	0,0	0,0	6,2	5,3	0,0	0,0	16,9
0,0	8,4	0,0	0,0	11,9	0,0	9,0	0,0	6,2	18,7
17,6	0,0	6,4	0,0	13,6	0,0	15,4	19,1	6,2	0,0
0,0	6,5	0,0	0,0	0,0	11,7	0,0	18,5	17,2	10,0
13,6	18,0	12,3	0,0	0,0	18,0	0,0	11,4	19,2	0,0
15,6	0,0	17,0	0,0	6,9	6,7	12,3	11,1	0,0	0,0
0,0	10,6	0,0	17,3	0,0	13,6	0,0	13,7	0,0	0,0
10,6	0,0	19,8	15,1	13,2	0,0	0,0	15,8	0,0	0,0
0,0	0,0	18,0	0,0	0,0	12,3	11,6	0,0	11,7	10,3
18,4	0,0	0,0	5,5	13,2	13,0	13,9	9,6	0,0	19,8
0,0	8,5	0,0	15,0	0,0	0,0	7,1	0,0	18,3	7,8
									
2,7	4,2	4,4	3,8	4,6	3,0	2,7	3,5	4,2	3,6
